MoO3                                    
   1.00000000000000     
     3.9145291749757853    0.0000000000000000    0.0000000000000000
    -0.0000000000000002    3.6861882885575006    0.0000000000000000
     0.0000000000000000    0.0000000000000000   13.8974593498635688
   Mo   O 
     4    12
Direct
  0.0786043015398251  0.2500000000000000  0.1049223049386137
  0.9213957204601848  0.7500000000000000  0.8950776870613892
  0.5786042795398152  0.7500000000000000  0.3950776870613921
  0.4213956904601732  0.2500000000000000  0.6049223129386108
  0.4997885268695229  0.2500000000000000  0.4328752350213821
  0.5002114431304800  0.7500000000000000  0.5671247649786201
  0.9997885568695271  0.7500000000000000  0.0671247649786193
  0.0002114731304775  0.2500000000000000  0.9328752350213799
  0.5203042195795790  0.2500000000000000  0.0880173422050092
  0.4796957804204033  0.7500000000000000  0.9119826727949886
  0.0203042195795889  0.7500000000000000  0.4119826727949891
  0.9796957804204210  0.2500000000000000  0.5880173272050114
  0.0390805077744783  0.2500000000000000  0.2247351690177964
  0.9609194812255137  0.7500000000000000  0.7752648309822044
  0.5390805187744863  0.7500000000000000  0.2752648309822043
  0.4609194812255173  0.2500000000000000  0.7247351690177956
 
  0.00000000E+00  0.00000000E+00  0.00000000E+00
  0.00000000E+00  0.00000000E+00  0.00000000E+00
  0.00000000E+00  0.00000000E+00  0.00000000E+00
  0.00000000E+00  0.00000000E+00  0.00000000E+00
  0.00000000E+00  0.00000000E+00  0.00000000E+00
  0.00000000E+00  0.00000000E+00  0.00000000E+00
  0.00000000E+00  0.00000000E+00  0.00000000E+00
  0.00000000E+00  0.00000000E+00  0.00000000E+00
  0.00000000E+00  0.00000000E+00  0.00000000E+00
  0.00000000E+00  0.00000000E+00  0.00000000E+00
  0.00000000E+00  0.00000000E+00  0.00000000E+00
  0.00000000E+00  0.00000000E+00  0.00000000E+00
  0.00000000E+00  0.00000000E+00  0.00000000E+00
  0.00000000E+00  0.00000000E+00  0.00000000E+00
  0.00000000E+00  0.00000000E+00  0.00000000E+00
  0.00000000E+00  0.00000000E+00  0.00000000E+00
